# Force-field settings file generated on 2023-07-04 via gen_data.py, version 1 May 2020

# ~~~~~Non-bonded~~~~~
# e.g., pair_coeff type eps sig
pair_coeff 1   1    0.20000  5.92000 -0.08000 17.76000 35.00000 
pair_coeff 2   2    0.20000  6.02000  0.47882 18.06000  0.00000 
pair_coeff 3   3    0.20000  6.36000  0.74353 19.08000  0.00000 
pair_coeff 4   4    0.20000  5.18000  0.50824 15.54000  0.00000 
pair_coeff 5   5    0.20000  5.58000  0.21412 16.74000 35.00000 
pair_coeff 6   6    0.20000  5.68000  0.50824 17.04000  0.00000 
pair_coeff 7   7    0.20000  6.18000  0.64059 18.54000  0.00000 
pair_coeff 8   8    0.20000  5.62000  0.50824 16.86000  0.00000 
pair_coeff 9   9    0.20000  4.50000  0.49353 13.50000  0.00000 
pair_coeff 10  10   0.20000  6.56000  0.47882 19.68000 35.00000 
pair_coeff 11  11   0.20000  6.46000  0.81706 19.38000  0.00000 
pair_coeff 12  12   0.20000  5.86000  0.58471 17.58000  0.00000 

pair_coeff 1   2    0.20000  5.97000  0.19941 17.91000  0.00000 
pair_coeff 1   3    0.20000  6.14000  0.33176 18.42000  0.00000 
pair_coeff 1   4    0.20000  5.55000  0.21412 16.65000  0.00000 
pair_coeff 1   5    0.20000  5.75000  0.06706 17.25000 35.00000 
pair_coeff 1   6    0.20000  5.80000  0.21412 17.40000  0.00000 
pair_coeff 1   7    0.20000  6.05000  0.28029 18.15000  0.00000 
pair_coeff 1   8    0.20000  5.77000  0.21412 17.31000  0.00000 
pair_coeff 1   9    0.20000  5.21000  0.20676 15.63000  0.00000 
pair_coeff 1   10   0.20000  6.24000  0.19941 18.72000 35.00000 
pair_coeff 1   11   0.20000  6.19000  0.36853 18.57000  0.00000 
pair_coeff 1   12   0.20000  5.89000  0.25235 17.67000  0.00000 

pair_coeff 2   3    0.20000  6.19000  0.61118 18.57000  0.00000 
pair_coeff 2   4    0.20000  5.60000  0.49353 16.80000  0.00000 
pair_coeff 2   5    0.20000  5.80000  0.34647 17.40000  0.00000 
pair_coeff 2   6    0.20000  5.85000  0.49353 17.55000  0.00000 
pair_coeff 2   7    0.20000  6.10000  0.55971 18.30000  0.00000 
pair_coeff 2   8    0.20000  5.82000  0.49353 17.46000  0.00000 
pair_coeff 2   9    0.20000  5.26000  0.48618 15.78000  0.00000 
pair_coeff 2   10   0.20000  6.29000  0.47882 18.87000  0.00000 
pair_coeff 2   11   0.20000  6.24000  0.64794 18.72000  0.00000 
pair_coeff 2   12   0.20000  5.94000  0.53177 17.82000  0.00000 

pair_coeff 3   4    0.20000  5.77000  0.62588 17.31000  0.00000 
pair_coeff 3   5    0.20000  5.97000  0.47882 17.91000  0.00000 
pair_coeff 3   6    0.20000  6.02000  0.62588 18.06000  0.00000 
pair_coeff 3   7    0.20000  6.27000  0.69206 18.81000  0.00000 
pair_coeff 3   8    0.20000  5.99000  0.62588 17.97000  0.00000 
pair_coeff 3   9    0.20000  5.43000  0.61853 16.29000  0.00000 
pair_coeff 3   10   0.20000  6.46000  0.61118 19.38000  0.00000 
pair_coeff 3   11   0.20000  6.41000  0.78029 19.23000  0.00000 
pair_coeff 3   12   0.20000  6.11000  0.66412 18.33000  0.00000 

pair_coeff 4   5    0.20000  5.38000  0.36118 16.14000  0.00000 
pair_coeff 4   6    0.20000  5.43000  0.50824 16.29000  0.00000 
pair_coeff 4   7    0.20000  5.68000  0.57441 17.04000  0.00000 
pair_coeff 4   8    0.20000  5.40000  0.50824 16.20000  0.00000 
pair_coeff 4   9    0.20000  4.84000  0.50088 14.52000  0.00000 
pair_coeff 4   10   0.20000  5.87000  0.49353 17.61000  0.00000 
pair_coeff 4   11   0.20000  5.82000  0.66265 17.46000  0.00000 
pair_coeff 4   12   0.20000  5.52000  0.54647 16.56000  0.00000 

pair_coeff 5   6    0.20000  5.63000  0.36118 16.89000  0.00000 
pair_coeff 5   7    0.20000  5.88000  0.42735 17.64000  0.00000 
pair_coeff 5   8    0.20000  5.60000  0.36118 16.80000  0.00000 
pair_coeff 5   9    0.20000  5.04000  0.35382 15.12000  0.00000 
pair_coeff 5   10   0.20000  6.07000  0.34647 18.21000 35.00000 
pair_coeff 5   11   0.20000  6.02000  0.51559 18.06000  0.00000 
pair_coeff 5   12   0.20000  5.72000  0.39941 17.16000  0.00000 

pair_coeff 6   7    0.20000  5.93000  0.57441 17.79000  0.00000 
pair_coeff 6   8    0.20000  5.65000  0.50824 16.95000  0.00000 
pair_coeff 6   9    0.20000  5.09000  0.50088 15.27000  0.00000 
pair_coeff 6   10   0.20000  6.12000  0.49353 18.36000  0.00000 
pair_coeff 6   11   0.20000  6.07000  0.66265 18.21000  0.00000 
pair_coeff 6   12   0.20000  5.77000  0.54647 17.31000  0.00000 

pair_coeff 7   8    0.20000  5.90000  0.57441 17.70000  0.00000 
pair_coeff 7   9    0.20000  5.34000  0.56706 16.02000  0.00000 
pair_coeff 7   10   0.20000  6.37000  0.55971 19.11000  0.00000 
pair_coeff 7   11   0.20000  6.32000  0.72882 18.96000  0.00000 
pair_coeff 7   12   0.20000  6.02000  0.61265 18.06000  0.00000 

pair_coeff 8   9    0.20000  5.06000  0.50088 15.18000  0.00000 
pair_coeff 8   10   0.20000  6.09000  0.49353 18.27000  0.00000 
pair_coeff 8   11   0.20000  6.04000  0.66265 18.12000  0.00000 
pair_coeff 8   12   0.20000  5.74000  0.54647 17.22000  0.00000 

pair_coeff 9   10   0.20000  5.53000  0.48618 16.59000  0.00000 
pair_coeff 9   11   0.20000  5.48000  0.65529 16.44000  0.00000 
pair_coeff 9   12   0.20000  5.18000  0.53912 15.54000  0.00000 

pair_coeff 10  11   0.20000  6.51000  0.64794 19.53000  0.00000 
pair_coeff 10  12   0.20000  6.21000  0.53177 18.63000  0.00000 

pair_coeff 11  12   0.20000  6.16000  0.70088 18.48000  0.00000 


# ~~~~~BONDS~~~~~
# e.g., bond_coeff type k  r0 
bond_coeff  1 harmonic   10.000  3.820
bond_coeff  2 harmonic   10.000  3.820
bond_coeff  3 harmonic   10.000  3.820
bond_coeff  4 harmonic   10.000  3.820
bond_coeff  5 harmonic   10.000  3.820
bond_coeff  6 harmonic   10.000  3.820
bond_coeff  7 harmonic   10.000  3.820
bond_coeff  8 harmonic   10.000  3.820
bond_coeff  9 harmonic   10.000  3.820
bond_coeff 10 harmonic   10.000  3.820
bond_coeff 11 harmonic   10.000  3.820
bond_coeff 12 harmonic   10.000  3.820
bond_coeff 13 harmonic   10.000  3.820
bond_coeff 14 harmonic   10.000  3.820
bond_coeff 15 harmonic   10.000  3.820
bond_coeff 16 harmonic   10.000  3.820
bond_coeff 17 harmonic   10.000  3.820

# ~~~~~ANGLES~~~~~
# e.g., angle_coeff type k(kcal/mol/rad**2)  theta_0 (degrees)

# ~~~~~DIHEDRALS~~~~~
# e.g., dihedral_coeff type k(kcal/mol) n d weighting_factor
